(set-info :category "industrial")
(set-info :status sat)
(declare-fun x00 () (_ BitVec 8))
(declare-fun x01 () (_ BitVec 8))
(declare-fun x05 () (_ BitVec 8))
(declare-fun x06 () (_ BitVec 8))
(declare-fun x08 () (_ BitVec 8))
(declare-fun x10 () (_ BitVec 8))
(declare-fun x11 () (_ BitVec 8))
(declare-fun x12 () (_ BitVec 8))
(declare-fun x13 () (_ BitVec 8))
(declare-fun x14 () (_ BitVec 8))
(declare-fun x15 () (_ BitVec 8))
(declare-fun x16 () (_ BitVec 8))
(declare-fun x17 () (_ BitVec 8))
(declare-fun x18 () (_ BitVec 8))
(declare-fun x21 () (_ BitVec 8))
(declare-fun x23 () (_ BitVec 8))
(declare-fun x26 () (_ BitVec 8))
(declare-fun x27 () (_ BitVec 8))
(declare-fun x28 () (_ BitVec 8))
(declare-fun x32 () (_ BitVec 8))
(declare-fun x33 () (_ BitVec 8))
(declare-fun x34 () (_ BitVec 8))
(declare-fun x36 () (_ BitVec 8))
(declare-fun x37 () (_ BitVec 8))
(declare-fun x38 () (_ BitVec 8))
(declare-fun x40 () (_ BitVec 8))
(declare-fun x41 () (_ BitVec 8))
(declare-fun x43 () (_ BitVec 8))
(declare-fun x44 () (_ BitVec 8))
(declare-fun x46 () (_ BitVec 8))
(declare-fun x47 () (_ BitVec 8))
(declare-fun x50 () (_ BitVec 8))
(declare-fun x51 () (_ BitVec 8))
(declare-fun x52 () (_ BitVec 8))
(declare-fun x53 () (_ BitVec 8))
(declare-fun x55 () (_ BitVec 8))
(declare-fun x56 () (_ BitVec 8))
(declare-fun x58 () (_ BitVec 8))
(declare-fun x60 () (_ BitVec 8))
(declare-fun x62 () (_ BitVec 8))
(declare-fun x63 () (_ BitVec 8))
(declare-fun x64 () (_ BitVec 8))
(declare-fun x65 () (_ BitVec 8))
(declare-fun x68 () (_ BitVec 8))
(declare-fun x71 () (_ BitVec 8))
(declare-fun x72 () (_ BitVec 8))
(declare-fun x73 () (_ BitVec 8))
(declare-fun x74 () (_ BitVec 8))
(declare-fun x75 () (_ BitVec 8))
(declare-fun x76 () (_ BitVec 8))
(declare-fun x77 () (_ BitVec 8))
(declare-fun x78 () (_ BitVec 8))
(declare-fun x80 () (_ BitVec 8))
(declare-fun x81 () (_ BitVec 8))
(declare-fun x83 () (_ BitVec 8))
(declare-fun x84 () (_ BitVec 8))
(declare-fun x85 () (_ BitVec 8))
(declare-fun x87 () (_ BitVec 8))
(assert (bvult x00 (_ bv9 8)))
(assert (bvult x01 (_ bv9 8)))
(assert (bvult x05 (_ bv9 8)))
(assert (bvult x06 (_ bv9 8)))
(assert (bvult x08 (_ bv9 8)))
(assert (bvult x10 (_ bv9 8)))
(assert (bvult x11 (_ bv9 8)))
(assert (bvult x12 (_ bv9 8)))
(assert (bvult x13 (_ bv9 8)))
(assert (bvult x14 (_ bv9 8)))
(assert (bvult x15 (_ bv9 8)))
(assert (bvult x16 (_ bv9 8)))
(assert (bvult x17 (_ bv9 8)))
(assert (bvult x18 (_ bv9 8)))
(assert (bvult x21 (_ bv9 8)))
(assert (bvult x23 (_ bv9 8)))
(assert (bvult x26 (_ bv9 8)))
(assert (bvult x27 (_ bv9 8)))
(assert (bvult x28 (_ bv9 8)))
(assert (bvult x32 (_ bv9 8)))
(assert (bvult x33 (_ bv9 8)))
(assert (bvult x34 (_ bv9 8)))
(assert (bvult x36 (_ bv9 8)))
(assert (bvult x37 (_ bv9 8)))
(assert (bvult x38 (_ bv9 8)))
(assert (bvult x40 (_ bv9 8)))
(assert (bvult x41 (_ bv9 8)))
(assert (bvult x43 (_ bv9 8)))
(assert (bvult x44 (_ bv9 8)))
(assert (bvult x46 (_ bv9 8)))
(assert (bvult x47 (_ bv9 8)))
(assert (bvult x50 (_ bv9 8)))
(assert (bvult x51 (_ bv9 8)))
(assert (bvult x52 (_ bv9 8)))
(assert (bvult x53 (_ bv9 8)))
(assert (bvult x55 (_ bv9 8)))
(assert (bvult x56 (_ bv9 8)))
(assert (bvult x58 (_ bv9 8)))
(assert (bvult x60 (_ bv9 8)))
(assert (bvult x62 (_ bv9 8)))
(assert (bvult x63 (_ bv9 8)))
(assert (bvult x64 (_ bv9 8)))
(assert (bvult x65 (_ bv9 8)))
(assert (bvult x68 (_ bv9 8)))
(assert (bvult x71 (_ bv9 8)))
(assert (bvult x72 (_ bv9 8)))
(assert (bvult x73 (_ bv9 8)))
(assert (bvult x74 (_ bv9 8)))
(assert (bvult x75 (_ bv9 8)))
(assert (bvult x76 (_ bv9 8)))
(assert (bvult x77 (_ bv9 8)))
(assert (bvult x78 (_ bv9 8)))
(assert (bvult x80 (_ bv9 8)))
(assert (bvult x81 (_ bv9 8)))
(assert (bvult x83 (_ bv9 8)))
(assert (bvult x84 (_ bv9 8)))
(assert (bvult x85 (_ bv9 8)))
(assert (bvult x87 (_ bv9 8)))
(assert (not (= x00 x01)))
(assert (not (= x00 (_ bv3 8))))
(assert (not (= x00 (_ bv4 8))))
(assert (not (= x00 (_ bv5 8))))
(assert (not (= x00 x05)))
(assert (not (= x00 x06)))
(assert (not (= x00 (_ bv8 8))))
(assert (not (= x00 x08)))
(assert (not (= x01 (_ bv3 8))))
(assert (not (= x01 (_ bv4 8))))
(assert (not (= x01 (_ bv5 8))))
(assert (not (= x01 x05)))
(assert (not (= x01 x06)))
(assert (not (= x01 (_ bv8 8))))
(assert (not (= x01 x08)))
(assert (not (= (_ bv3 8) (_ bv4 8))))
(assert (not (= (_ bv3 8) (_ bv5 8))))
(assert (not (= (_ bv3 8) x05)))
(assert (not (= (_ bv3 8) x06)))
(assert (not (= (_ bv3 8) (_ bv8 8))))
(assert (not (= (_ bv3 8) x08)))
(assert (not (= (_ bv4 8) (_ bv5 8))))
(assert (not (= (_ bv4 8) x05)))
(assert (not (= (_ bv4 8) x06)))
(assert (not (= (_ bv4 8) (_ bv8 8))))
(assert (not (= (_ bv4 8) x08)))
(assert (not (= (_ bv5 8) x05)))
(assert (not (= (_ bv5 8) x06)))
(assert (not (= (_ bv5 8) (_ bv8 8))))
(assert (not (= (_ bv5 8) x08)))
(assert (not (= x05 x06)))
(assert (not (= x05 (_ bv8 8))))
(assert (not (= x05 x08)))
(assert (not (= x06 (_ bv8 8))))
(assert (not (= x06 x08)))
(assert (not (= (_ bv8 8) x08)))
(assert (not (= x10 x11)))
(assert (not (= x10 x12)))
(assert (not (= x10 x13)))
(assert (not (= x10 x14)))
(assert (not (= x10 x15)))
(assert (not (= x10 x16)))
(assert (not (= x10 x17)))
(assert (not (= x10 x18)))
(assert (not (= x11 x12)))
(assert (not (= x11 x13)))
(assert (not (= x11 x14)))
(assert (not (= x11 x15)))
(assert (not (= x11 x16)))
(assert (not (= x11 x17)))
(assert (not (= x11 x18)))
(assert (not (= x12 x13)))
(assert (not (= x12 x14)))
(assert (not (= x12 x15)))
(assert (not (= x12 x16)))
(assert (not (= x12 x17)))
(assert (not (= x12 x18)))
(assert (not (= x13 x14)))
(assert (not (= x13 x15)))
(assert (not (= x13 x16)))
(assert (not (= x13 x17)))
(assert (not (= x13 x18)))
(assert (not (= x14 x15)))
(assert (not (= x14 x16)))
(assert (not (= x14 x17)))
(assert (not (= x14 x18)))
(assert (not (= x15 x16)))
(assert (not (= x15 x17)))
(assert (not (= x15 x18)))
(assert (not (= x16 x17)))
(assert (not (= x16 x18)))
(assert (not (= x17 x18)))
(assert (not (= (_ bv7 8) x21)))
(assert (not (= (_ bv7 8) (_ bv9 8))))
(assert (not (= (_ bv7 8) x23)))
(assert (not (= (_ bv7 8) (_ bv3 8))))
(assert (not (= (_ bv7 8) (_ bv1 8))))
(assert (not (= (_ bv7 8) x26)))
(assert (not (= (_ bv7 8) x27)))
(assert (not (= (_ bv7 8) x28)))
(assert (not (= x21 (_ bv9 8))))
(assert (not (= x21 x23)))
(assert (not (= x21 (_ bv3 8))))
(assert (not (= x21 (_ bv1 8))))
(assert (not (= x21 x26)))
(assert (not (= x21 x27)))
(assert (not (= x21 x28)))
(assert (not (= (_ bv9 8) x23)))
(assert (not (= (_ bv9 8) (_ bv3 8))))
(assert (not (= (_ bv9 8) (_ bv1 8))))
(assert (not (= (_ bv9 8) x26)))
(assert (not (= (_ bv9 8) x27)))
(assert (not (= (_ bv9 8) x28)))
(assert (not (= x23 (_ bv3 8))))
(assert (not (= x23 (_ bv1 8))))
(assert (not (= x23 x26)))
(assert (not (= x23 x27)))
(assert (not (= x23 x28)))
(assert (not (= (_ bv3 8) (_ bv1 8))))
(assert (not (= (_ bv3 8) x26)))
(assert (not (= (_ bv3 8) x27)))
(assert (not (= (_ bv3 8) x28)))
(assert (not (= (_ bv1 8) x26)))
(assert (not (= (_ bv1 8) x27)))
(assert (not (= (_ bv1 8) x28)))
(assert (not (= x26 x27)))
(assert (not (= x26 x28)))
(assert (not (= x27 x28)))
(assert (not (= (_ bv2 8) (_ bv4 8))))
(assert (not (= (_ bv2 8) x32)))
(assert (not (= (_ bv2 8) x33)))
(assert (not (= (_ bv2 8) x34)))
(assert (not (= (_ bv2 8) (_ bv7 8))))
(assert (not (= (_ bv2 8) x36)))
(assert (not (= (_ bv2 8) x37)))
(assert (not (= (_ bv2 8) x38)))
(assert (not (= (_ bv4 8) x32)))
(assert (not (= (_ bv4 8) x33)))
(assert (not (= (_ bv4 8) x34)))
(assert (not (= (_ bv4 8) (_ bv7 8))))
(assert (not (= (_ bv4 8) x36)))
(assert (not (= (_ bv4 8) x37)))
(assert (not (= (_ bv4 8) x38)))
(assert (not (= x32 x33)))
(assert (not (= x32 x34)))
(assert (not (= x32 (_ bv7 8))))
(assert (not (= x32 x36)))
(assert (not (= x32 x37)))
(assert (not (= x32 x38)))
(assert (not (= x33 x34)))
(assert (not (= x33 (_ bv7 8))))
(assert (not (= x33 x36)))
(assert (not (= x33 x37)))
(assert (not (= x33 x38)))
(assert (not (= x34 (_ bv7 8))))
(assert (not (= x34 x36)))
(assert (not (= x34 x37)))
(assert (not (= x34 x38)))
(assert (not (= (_ bv7 8) x36)))
(assert (not (= (_ bv7 8) x37)))
(assert (not (= (_ bv7 8) x38)))
(assert (not (= x36 x37)))
(assert (not (= x36 x38)))
(assert (not (= x37 x38)))
(assert (not (= x40 x41)))
(assert (not (= x40 (_ bv8 8))))
(assert (not (= x40 x43)))
(assert (not (= x40 x44)))
(assert (not (= x40 (_ bv9 8))))
(assert (not (= x40 x46)))
(assert (not (= x40 x47)))
(assert (not (= x40 (_ bv5 8))))
(assert (not (= x41 (_ bv8 8))))
(assert (not (= x41 x43)))
(assert (not (= x41 x44)))
(assert (not (= x41 (_ bv9 8))))
(assert (not (= x41 x46)))
(assert (not (= x41 x47)))
(assert (not (= x41 (_ bv5 8))))
(assert (not (= (_ bv8 8) x43)))
(assert (not (= (_ bv8 8) x44)))
(assert (not (= (_ bv8 8) (_ bv9 8))))
(assert (not (= (_ bv8 8) x46)))
(assert (not (= (_ bv8 8) x47)))
(assert (not (= (_ bv8 8) (_ bv5 8))))
(assert (not (= x43 x44)))
(assert (not (= x43 (_ bv9 8))))
(assert (not (= x43 x46)))
(assert (not (= x43 x47)))
(assert (not (= x43 (_ bv5 8))))
(assert (not (= x44 (_ bv9 8))))
(assert (not (= x44 x46)))
(assert (not (= x44 x47)))
(assert (not (= x44 (_ bv5 8))))
(assert (not (= (_ bv9 8) x46)))
(assert (not (= (_ bv9 8) x47)))
(assert (not (= (_ bv9 8) (_ bv5 8))))
(assert (not (= x46 x47)))
(assert (not (= x46 (_ bv5 8))))
(assert (not (= x47 (_ bv5 8))))
(assert (not (= x50 x51)))
(assert (not (= x50 x52)))
(assert (not (= x50 x53)))
(assert (not (= x50 (_ bv1 8))))
(assert (not (= x50 x55)))
(assert (not (= x50 x56)))
(assert (not (= x50 (_ bv2 8))))
(assert (not (= x50 x58)))
(assert (not (= x51 x52)))
(assert (not (= x51 x53)))
(assert (not (= x51 (_ bv1 8))))
(assert (not (= x51 x55)))
(assert (not (= x51 x56)))
(assert (not (= x51 (_ bv2 8))))
(assert (not (= x51 x58)))
(assert (not (= x52 x53)))
(assert (not (= x52 (_ bv1 8))))
(assert (not (= x52 x55)))
(assert (not (= x52 x56)))
(assert (not (= x52 (_ bv2 8))))
(assert (not (= x52 x58)))
(assert (not (= x53 (_ bv1 8))))
(assert (not (= x53 x55)))
(assert (not (= x53 x56)))
(assert (not (= x53 (_ bv2 8))))
(assert (not (= x53 x58)))
(assert (not (= (_ bv1 8) x55)))
(assert (not (= (_ bv1 8) x56)))
(assert (not (= (_ bv1 8) (_ bv2 8))))
(assert (not (= (_ bv1 8) x58)))
(assert (not (= x55 x56)))
(assert (not (= x55 (_ bv2 8))))
(assert (not (= x55 x58)))
(assert (not (= x56 (_ bv2 8))))
(assert (not (= x56 x58)))
(assert (not (= (_ bv2 8) x58)))
(assert (not (= x60 (_ bv7 8))))
(assert (not (= x60 x62)))
(assert (not (= x60 x63)))
(assert (not (= x60 x64)))
(assert (not (= x60 x65)))
(assert (not (= x60 (_ bv2 8))))
(assert (not (= x60 (_ bv9 8))))
(assert (not (= x60 x68)))
(assert (not (= (_ bv7 8) x62)))
(assert (not (= (_ bv7 8) x63)))
(assert (not (= (_ bv7 8) x64)))
(assert (not (= (_ bv7 8) x65)))
(assert (not (= (_ bv7 8) (_ bv2 8))))
(assert (not (= (_ bv7 8) (_ bv9 8))))
(assert (not (= (_ bv7 8) x68)))
(assert (not (= x62 x63)))
(assert (not (= x62 x64)))
(assert (not (= x62 x65)))
(assert (not (= x62 (_ bv2 8))))
(assert (not (= x62 (_ bv9 8))))
(assert (not (= x62 x68)))
(assert (not (= x63 x64)))
(assert (not (= x63 x65)))
(assert (not (= x63 (_ bv2 8))))
(assert (not (= x63 (_ bv9 8))))
(assert (not (= x63 x68)))
(assert (not (= x64 x65)))
(assert (not (= x64 (_ bv2 8))))
(assert (not (= x64 (_ bv9 8))))
(assert (not (= x64 x68)))
(assert (not (= x65 (_ bv2 8))))
(assert (not (= x65 (_ bv9 8))))
(assert (not (= x65 x68)))
(assert (not (= (_ bv2 8) (_ bv9 8))))
(assert (not (= (_ bv2 8) x68)))
(assert (not (= (_ bv9 8) x68)))
(assert (not (= (_ bv8 8) x71)))
(assert (not (= (_ bv8 8) x72)))
(assert (not (= (_ bv8 8) x73)))
(assert (not (= (_ bv8 8) x74)))
(assert (not (= (_ bv8 8) x75)))
(assert (not (= (_ bv8 8) x76)))
(assert (not (= (_ bv8 8) x77)))
(assert (not (= (_ bv8 8) x78)))
(assert (not (= x71 x72)))
(assert (not (= x71 x73)))
(assert (not (= x71 x74)))
(assert (not (= x71 x75)))
(assert (not (= x71 x76)))
(assert (not (= x71 x77)))
(assert (not (= x71 x78)))
(assert (not (= x72 x73)))
(assert (not (= x72 x74)))
(assert (not (= x72 x75)))
(assert (not (= x72 x76)))
(assert (not (= x72 x77)))
(assert (not (= x72 x78)))
(assert (not (= x73 x74)))
(assert (not (= x73 x75)))
(assert (not (= x73 x76)))
(assert (not (= x73 x77)))
(assert (not (= x73 x78)))
(assert (not (= x74 x75)))
(assert (not (= x74 x76)))
(assert (not (= x74 x77)))
(assert (not (= x74 x78)))
(assert (not (= x75 x76)))
(assert (not (= x75 x77)))
(assert (not (= x75 x78)))
(assert (not (= x76 x77)))
(assert (not (= x76 x78)))
(assert (not (= x77 x78)))
(assert (not (= x80 x81)))
(assert (not (= x80 (_ bv2 8))))
(assert (not (= x80 x83)))
(assert (not (= x80 x84)))
(assert (not (= x80 x85)))
(assert (not (= x80 (_ bv6 8))))
(assert (not (= x80 x87)))
(assert (not (= x80 (_ bv4 8))))
(assert (not (= x81 (_ bv2 8))))
(assert (not (= x81 x83)))
(assert (not (= x81 x84)))
(assert (not (= x81 x85)))
(assert (not (= x81 (_ bv6 8))))
(assert (not (= x81 x87)))
(assert (not (= x81 (_ bv4 8))))
(assert (not (= (_ bv2 8) x83)))
(assert (not (= (_ bv2 8) x84)))
(assert (not (= (_ bv2 8) x85)))
(assert (not (= (_ bv2 8) (_ bv6 8))))
(assert (not (= (_ bv2 8) x87)))
(assert (not (= (_ bv2 8) (_ bv4 8))))
(assert (not (= x83 x84)))
(assert (not (= x83 x85)))
(assert (not (= x83 (_ bv6 8))))
(assert (not (= x83 x87)))
(assert (not (= x83 (_ bv4 8))))
(assert (not (= x84 x85)))
(assert (not (= x84 (_ bv6 8))))
(assert (not (= x84 x87)))
(assert (not (= x84 (_ bv4 8))))
(assert (not (= x85 (_ bv6 8))))
(assert (not (= x85 x87)))
(assert (not (= x85 (_ bv4 8))))
(assert (not (= (_ bv6 8) x87)))
(assert (not (= (_ bv6 8) (_ bv4 8))))
(assert (not (= x87 (_ bv4 8))))
(assert (not (= x00 x10)))
(assert (not (= x00 (_ bv7 8))))
(assert (not (= x00 (_ bv2 8))))
(assert (not (= x00 x40)))
(assert (not (= x00 x50)))
(assert (not (= x00 x60)))
(assert (not (= x00 (_ bv8 8))))
(assert (not (= x00 x80)))
(assert (not (= x10 (_ bv7 8))))
(assert (not (= x10 (_ bv2 8))))
(assert (not (= x10 x40)))
(assert (not (= x10 x50)))
(assert (not (= x10 x60)))
(assert (not (= x10 (_ bv8 8))))
(assert (not (= x10 x80)))
(assert (not (= (_ bv7 8) (_ bv2 8))))
(assert (not (= (_ bv7 8) x40)))
(assert (not (= (_ bv7 8) x50)))
(assert (not (= (_ bv7 8) x60)))
(assert (not (= (_ bv7 8) (_ bv8 8))))
(assert (not (= (_ bv7 8) x80)))
(assert (not (= (_ bv2 8) x40)))
(assert (not (= (_ bv2 8) x50)))
(assert (not (= (_ bv2 8) x60)))
(assert (not (= (_ bv2 8) (_ bv8 8))))
(assert (not (= (_ bv2 8) x80)))
(assert (not (= x40 x50)))
(assert (not (= x40 x60)))
(assert (not (= x40 (_ bv8 8))))
(assert (not (= x40 x80)))
(assert (not (= x50 x60)))
(assert (not (= x50 (_ bv8 8))))
(assert (not (= x50 x80)))
(assert (not (= x60 (_ bv8 8))))
(assert (not (= x60 x80)))
(assert (not (= (_ bv8 8) x80)))
(assert (not (= x01 x11)))
(assert (not (= x01 x21)))
(assert (not (= x01 (_ bv4 8))))
(assert (not (= x01 x41)))
(assert (not (= x01 x51)))
(assert (not (= x01 (_ bv7 8))))
(assert (not (= x01 x71)))
(assert (not (= x01 x81)))
(assert (not (= x11 x21)))
(assert (not (= x11 (_ bv4 8))))
(assert (not (= x11 x41)))
(assert (not (= x11 x51)))
(assert (not (= x11 (_ bv7 8))))
(assert (not (= x11 x71)))
(assert (not (= x11 x81)))
(assert (not (= x21 (_ bv4 8))))
(assert (not (= x21 x41)))
(assert (not (= x21 x51)))
(assert (not (= x21 (_ bv7 8))))
(assert (not (= x21 x71)))
(assert (not (= x21 x81)))
(assert (not (= (_ bv4 8) x41)))
(assert (not (= (_ bv4 8) x51)))
(assert (not (= (_ bv4 8) (_ bv7 8))))
(assert (not (= (_ bv4 8) x71)))
(assert (not (= (_ bv4 8) x81)))
(assert (not (= x41 x51)))
(assert (not (= x41 (_ bv7 8))))
(assert (not (= x41 x71)))
(assert (not (= x41 x81)))
(assert (not (= x51 (_ bv7 8))))
(assert (not (= x51 x71)))
(assert (not (= x51 x81)))
(assert (not (= (_ bv7 8) x71)))
(assert (not (= (_ bv7 8) x81)))
(assert (not (= x71 x81)))
(assert (not (= (_ bv3 8) x12)))
(assert (not (= (_ bv3 8) (_ bv9 8))))
(assert (not (= (_ bv3 8) x32)))
(assert (not (= (_ bv3 8) (_ bv8 8))))
(assert (not (= (_ bv3 8) x52)))
(assert (not (= (_ bv3 8) x62)))
(assert (not (= (_ bv3 8) x72)))
(assert (not (= (_ bv3 8) (_ bv2 8))))
(assert (not (= x12 (_ bv9 8))))
(assert (not (= x12 x32)))
(assert (not (= x12 (_ bv8 8))))
(assert (not (= x12 x52)))
(assert (not (= x12 x62)))
(assert (not (= x12 x72)))
(assert (not (= x12 (_ bv2 8))))
(assert (not (= (_ bv9 8) x32)))
(assert (not (= (_ bv9 8) (_ bv8 8))))
(assert (not (= (_ bv9 8) x52)))
(assert (not (= (_ bv9 8) x62)))
(assert (not (= (_ bv9 8) x72)))
(assert (not (= (_ bv9 8) (_ bv2 8))))
(assert (not (= x32 (_ bv8 8))))
(assert (not (= x32 x52)))
(assert (not (= x32 x62)))
(assert (not (= x32 x72)))
(assert (not (= x32 (_ bv2 8))))
(assert (not (= (_ bv8 8) x52)))
(assert (not (= (_ bv8 8) x62)))
(assert (not (= (_ bv8 8) x72)))
(assert (not (= (_ bv8 8) (_ bv2 8))))
(assert (not (= x52 x62)))
(assert (not (= x52 x72)))
(assert (not (= x52 (_ bv2 8))))
(assert (not (= x62 x72)))
(assert (not (= x62 (_ bv2 8))))
(assert (not (= x72 (_ bv2 8))))
(assert (not (= (_ bv4 8) x13)))
(assert (not (= (_ bv4 8) x23)))
(assert (not (= (_ bv4 8) x33)))
(assert (not (= (_ bv4 8) x43)))
(assert (not (= (_ bv4 8) x53)))
(assert (not (= (_ bv4 8) x63)))
(assert (not (= (_ bv4 8) x73)))
(assert (not (= (_ bv4 8) x83)))
(assert (not (= x13 x23)))
(assert (not (= x13 x33)))
(assert (not (= x13 x43)))
(assert (not (= x13 x53)))
(assert (not (= x13 x63)))
(assert (not (= x13 x73)))
(assert (not (= x13 x83)))
(assert (not (= x23 x33)))
(assert (not (= x23 x43)))
(assert (not (= x23 x53)))
(assert (not (= x23 x63)))
(assert (not (= x23 x73)))
(assert (not (= x23 x83)))
(assert (not (= x33 x43)))
(assert (not (= x33 x53)))
(assert (not (= x33 x63)))
(assert (not (= x33 x73)))
(assert (not (= x33 x83)))
(assert (not (= x43 x53)))
(assert (not (= x43 x63)))
(assert (not (= x43 x73)))
(assert (not (= x43 x83)))
(assert (not (= x53 x63)))
(assert (not (= x53 x73)))
(assert (not (= x53 x83)))
(assert (not (= x63 x73)))
(assert (not (= x63 x83)))
(assert (not (= x73 x83)))
(assert (not (= (_ bv5 8) x14)))
(assert (not (= (_ bv5 8) (_ bv3 8))))
(assert (not (= (_ bv5 8) x34)))
(assert (not (= (_ bv5 8) x44)))
(assert (not (= (_ bv5 8) (_ bv1 8))))
(assert (not (= (_ bv5 8) x64)))
(assert (not (= (_ bv5 8) x74)))
(assert (not (= (_ bv5 8) x84)))
(assert (not (= x14 (_ bv3 8))))
(assert (not (= x14 x34)))
(assert (not (= x14 x44)))
(assert (not (= x14 (_ bv1 8))))
(assert (not (= x14 x64)))
(assert (not (= x14 x74)))
(assert (not (= x14 x84)))
(assert (not (= (_ bv3 8) x34)))
(assert (not (= (_ bv3 8) x44)))
(assert (not (= (_ bv3 8) (_ bv1 8))))
(assert (not (= (_ bv3 8) x64)))
(assert (not (= (_ bv3 8) x74)))
(assert (not (= (_ bv3 8) x84)))
(assert (not (= x34 x44)))
(assert (not (= x34 (_ bv1 8))))
(assert (not (= x34 x64)))
(assert (not (= x34 x74)))
(assert (not (= x34 x84)))
(assert (not (= x44 (_ bv1 8))))
(assert (not (= x44 x64)))
(assert (not (= x44 x74)))
(assert (not (= x44 x84)))
(assert (not (= (_ bv1 8) x64)))
(assert (not (= (_ bv1 8) x74)))
(assert (not (= (_ bv1 8) x84)))
(assert (not (= x64 x74)))
(assert (not (= x64 x84)))
(assert (not (= x74 x84)))
(assert (not (= x05 x15)))
(assert (not (= x05 (_ bv1 8))))
(assert (not (= x05 (_ bv7 8))))
(assert (not (= x05 (_ bv9 8))))
(assert (not (= x05 x55)))
(assert (not (= x05 x65)))
(assert (not (= x05 x75)))
(assert (not (= x05 x85)))
(assert (not (= x15 (_ bv1 8))))
(assert (not (= x15 (_ bv7 8))))
(assert (not (= x15 (_ bv9 8))))
(assert (not (= x15 x55)))
(assert (not (= x15 x65)))
(assert (not (= x15 x75)))
(assert (not (= x15 x85)))
(assert (not (= (_ bv1 8) (_ bv7 8))))
(assert (not (= (_ bv1 8) (_ bv9 8))))
(assert (not (= (_ bv1 8) x55)))
(assert (not (= (_ bv1 8) x65)))
(assert (not (= (_ bv1 8) x75)))
(assert (not (= (_ bv1 8) x85)))
(assert (not (= (_ bv7 8) (_ bv9 8))))
(assert (not (= (_ bv7 8) x55)))
(assert (not (= (_ bv7 8) x65)))
(assert (not (= (_ bv7 8) x75)))
(assert (not (= (_ bv7 8) x85)))
(assert (not (= (_ bv9 8) x55)))
(assert (not (= (_ bv9 8) x65)))
(assert (not (= (_ bv9 8) x75)))
(assert (not (= (_ bv9 8) x85)))
(assert (not (= x55 x65)))
(assert (not (= x55 x75)))
(assert (not (= x55 x85)))
(assert (not (= x65 x75)))
(assert (not (= x65 x85)))
(assert (not (= x75 x85)))
(assert (not (= x06 x16)))
(assert (not (= x06 x26)))
(assert (not (= x06 x36)))
(assert (not (= x06 x46)))
(assert (not (= x06 x56)))
(assert (not (= x06 (_ bv2 8))))
(assert (not (= x06 x76)))
(assert (not (= x06 (_ bv6 8))))
(assert (not (= x16 x26)))
(assert (not (= x16 x36)))
(assert (not (= x16 x46)))
(assert (not (= x16 x56)))
(assert (not (= x16 (_ bv2 8))))
(assert (not (= x16 x76)))
(assert (not (= x16 (_ bv6 8))))
(assert (not (= x26 x36)))
(assert (not (= x26 x46)))
(assert (not (= x26 x56)))
(assert (not (= x26 (_ bv2 8))))
(assert (not (= x26 x76)))
(assert (not (= x26 (_ bv6 8))))
(assert (not (= x36 x46)))
(assert (not (= x36 x56)))
(assert (not (= x36 (_ bv2 8))))
(assert (not (= x36 x76)))
(assert (not (= x36 (_ bv6 8))))
(assert (not (= x46 x56)))
(assert (not (= x46 (_ bv2 8))))
(assert (not (= x46 x76)))
(assert (not (= x46 (_ bv6 8))))
(assert (not (= x56 (_ bv2 8))))
(assert (not (= x56 x76)))
(assert (not (= x56 (_ bv6 8))))
(assert (not (= (_ bv2 8) x76)))
(assert (not (= (_ bv2 8) (_ bv6 8))))
(assert (not (= x76 (_ bv6 8))))
(assert (not (= (_ bv8 8) x17)))
(assert (not (= (_ bv8 8) x27)))
(assert (not (= (_ bv8 8) x37)))
(assert (not (= (_ bv8 8) x47)))
(assert (not (= (_ bv8 8) (_ bv2 8))))
(assert (not (= (_ bv8 8) (_ bv9 8))))
(assert (not (= (_ bv8 8) x77)))
(assert (not (= (_ bv8 8) x87)))
(assert (not (= x17 x27)))
(assert (not (= x17 x37)))
(assert (not (= x17 x47)))
(assert (not (= x17 (_ bv2 8))))
(assert (not (= x17 (_ bv9 8))))
(assert (not (= x17 x77)))
(assert (not (= x17 x87)))
(assert (not (= x27 x37)))
(assert (not (= x27 x47)))
(assert (not (= x27 (_ bv2 8))))
(assert (not (= x27 (_ bv9 8))))
(assert (not (= x27 x77)))
(assert (not (= x27 x87)))
(assert (not (= x37 x47)))
(assert (not (= x37 (_ bv2 8))))
(assert (not (= x37 (_ bv9 8))))
(assert (not (= x37 x77)))
(assert (not (= x37 x87)))
(assert (not (= x47 (_ bv2 8))))
(assert (not (= x47 (_ bv9 8))))
(assert (not (= x47 x77)))
(assert (not (= x47 x87)))
(assert (not (= (_ bv2 8) (_ bv9 8))))
(assert (not (= (_ bv2 8) x77)))
(assert (not (= (_ bv2 8) x87)))
(assert (not (= (_ bv9 8) x77)))
(assert (not (= (_ bv9 8) x87)))
(assert (not (= x77 x87)))
(assert (not (= x08 x18)))
(assert (not (= x08 x28)))
(assert (not (= x08 x38)))
(assert (not (= x08 (_ bv5 8))))
(assert (not (= x08 x58)))
(assert (not (= x08 x68)))
(assert (not (= x08 x78)))
(assert (not (= x08 (_ bv4 8))))
(assert (not (= x18 x28)))
(assert (not (= x18 x38)))
(assert (not (= x18 (_ bv5 8))))
(assert (not (= x18 x58)))
(assert (not (= x18 x68)))
(assert (not (= x18 x78)))
(assert (not (= x18 (_ bv4 8))))
(assert (not (= x28 x38)))
(assert (not (= x28 (_ bv5 8))))
(assert (not (= x28 x58)))
(assert (not (= x28 x68)))
(assert (not (= x28 x78)))
(assert (not (= x28 (_ bv4 8))))
(assert (not (= x38 (_ bv5 8))))
(assert (not (= x38 x58)))
(assert (not (= x38 x68)))
(assert (not (= x38 x78)))
(assert (not (= x38 (_ bv4 8))))
(assert (not (= (_ bv5 8) x58)))
(assert (not (= (_ bv5 8) x68)))
(assert (not (= (_ bv5 8) x78)))
(assert (not (= (_ bv5 8) (_ bv4 8))))
(assert (not (= x58 x68)))
(assert (not (= x58 x78)))
(assert (not (= x58 (_ bv4 8))))
(assert (not (= x68 x78)))
(assert (not (= x68 (_ bv4 8))))
(assert (not (= x78 (_ bv4 8))))
(assert (not (= x00 x01)))
(assert (not (= x00 (_ bv3 8))))
(assert (not (= x00 x10)))
(assert (not (= x00 x11)))
(assert (not (= x00 x12)))
(assert (not (= x00 (_ bv7 8))))
(assert (not (= x00 x21)))
(assert (not (= x00 (_ bv9 8))))
(assert (not (= x01 (_ bv3 8))))
(assert (not (= x01 x10)))
(assert (not (= x01 x11)))
(assert (not (= x01 x12)))
(assert (not (= x01 (_ bv7 8))))
(assert (not (= x01 x21)))
(assert (not (= x01 (_ bv9 8))))
(assert (not (= (_ bv3 8) x10)))
(assert (not (= (_ bv3 8) x11)))
(assert (not (= (_ bv3 8) x12)))
(assert (not (= (_ bv3 8) (_ bv7 8))))
(assert (not (= (_ bv3 8) x21)))
(assert (not (= (_ bv3 8) (_ bv9 8))))
(assert (not (= x10 x11)))
(assert (not (= x10 x12)))
(assert (not (= x10 (_ bv7 8))))
(assert (not (= x10 x21)))
(assert (not (= x10 (_ bv9 8))))
(assert (not (= x11 x12)))
(assert (not (= x11 (_ bv7 8))))
(assert (not (= x11 x21)))
(assert (not (= x11 (_ bv9 8))))
(assert (not (= x12 (_ bv7 8))))
(assert (not (= x12 x21)))
(assert (not (= x12 (_ bv9 8))))
(assert (not (= (_ bv7 8) x21)))
(assert (not (= (_ bv7 8) (_ bv9 8))))
(assert (not (= x21 (_ bv9 8))))
(assert (not (= (_ bv4 8) (_ bv5 8))))
(assert (not (= (_ bv4 8) x05)))
(assert (not (= (_ bv4 8) x13)))
(assert (not (= (_ bv4 8) x14)))
(assert (not (= (_ bv4 8) x15)))
(assert (not (= (_ bv4 8) x23)))
(assert (not (= (_ bv4 8) (_ bv3 8))))
(assert (not (= (_ bv4 8) (_ bv1 8))))
(assert (not (= (_ bv5 8) x05)))
(assert (not (= (_ bv5 8) x13)))
(assert (not (= (_ bv5 8) x14)))
(assert (not (= (_ bv5 8) x15)))
(assert (not (= (_ bv5 8) x23)))
(assert (not (= (_ bv5 8) (_ bv3 8))))
(assert (not (= (_ bv5 8) (_ bv1 8))))
(assert (not (= x05 x13)))
(assert (not (= x05 x14)))
(assert (not (= x05 x15)))
(assert (not (= x05 x23)))
(assert (not (= x05 (_ bv3 8))))
(assert (not (= x05 (_ bv1 8))))
(assert (not (= x13 x14)))
(assert (not (= x13 x15)))
(assert (not (= x13 x23)))
(assert (not (= x13 (_ bv3 8))))
(assert (not (= x13 (_ bv1 8))))
(assert (not (= x14 x15)))
(assert (not (= x14 x23)))
(assert (not (= x14 (_ bv3 8))))
(assert (not (= x14 (_ bv1 8))))
(assert (not (= x15 x23)))
(assert (not (= x15 (_ bv3 8))))
(assert (not (= x15 (_ bv1 8))))
(assert (not (= x23 (_ bv3 8))))
(assert (not (= x23 (_ bv1 8))))
(assert (not (= (_ bv3 8) (_ bv1 8))))
(assert (not (= x06 (_ bv8 8))))
(assert (not (= x06 x08)))
(assert (not (= x06 x16)))
(assert (not (= x06 x17)))
(assert (not (= x06 x18)))
(assert (not (= x06 x26)))
(assert (not (= x06 x27)))
(assert (not (= x06 x28)))
(assert (not (= (_ bv8 8) x08)))
(assert (not (= (_ bv8 8) x16)))
(assert (not (= (_ bv8 8) x17)))
(assert (not (= (_ bv8 8) x18)))
(assert (not (= (_ bv8 8) x26)))
(assert (not (= (_ bv8 8) x27)))
(assert (not (= (_ bv8 8) x28)))
(assert (not (= x08 x16)))
(assert (not (= x08 x17)))
(assert (not (= x08 x18)))
(assert (not (= x08 x26)))
(assert (not (= x08 x27)))
(assert (not (= x08 x28)))
(assert (not (= x16 x17)))
(assert (not (= x16 x18)))
(assert (not (= x16 x26)))
(assert (not (= x16 x27)))
(assert (not (= x16 x28)))
(assert (not (= x17 x18)))
(assert (not (= x17 x26)))
(assert (not (= x17 x27)))
(assert (not (= x17 x28)))
(assert (not (= x18 x26)))
(assert (not (= x18 x27)))
(assert (not (= x18 x28)))
(assert (not (= x26 x27)))
(assert (not (= x26 x28)))
(assert (not (= x27 x28)))
(assert (not (= (_ bv2 8) (_ bv4 8))))
(assert (not (= (_ bv2 8) x32)))
(assert (not (= (_ bv2 8) x40)))
(assert (not (= (_ bv2 8) x41)))
(assert (not (= (_ bv2 8) (_ bv8 8))))
(assert (not (= (_ bv2 8) x50)))
(assert (not (= (_ bv2 8) x51)))
(assert (not (= (_ bv2 8) x52)))
(assert (not (= (_ bv4 8) x32)))
(assert (not (= (_ bv4 8) x40)))
(assert (not (= (_ bv4 8) x41)))
(assert (not (= (_ bv4 8) (_ bv8 8))))
(assert (not (= (_ bv4 8) x50)))
(assert (not (= (_ bv4 8) x51)))
(assert (not (= (_ bv4 8) x52)))
(assert (not (= x32 x40)))
(assert (not (= x32 x41)))
(assert (not (= x32 (_ bv8 8))))
(assert (not (= x32 x50)))
(assert (not (= x32 x51)))
(assert (not (= x32 x52)))
(assert (not (= x40 x41)))
(assert (not (= x40 (_ bv8 8))))
(assert (not (= x40 x50)))
(assert (not (= x40 x51)))
(assert (not (= x40 x52)))
(assert (not (= x41 (_ bv8 8))))
(assert (not (= x41 x50)))
(assert (not (= x41 x51)))
(assert (not (= x41 x52)))
(assert (not (= (_ bv8 8) x50)))
(assert (not (= (_ bv8 8) x51)))
(assert (not (= (_ bv8 8) x52)))
(assert (not (= x50 x51)))
(assert (not (= x50 x52)))
(assert (not (= x51 x52)))
(assert (not (= x33 x34)))
(assert (not (= x33 (_ bv7 8))))
(assert (not (= x33 x43)))
(assert (not (= x33 x44)))
(assert (not (= x33 (_ bv9 8))))
(assert (not (= x33 x53)))
(assert (not (= x33 (_ bv1 8))))
(assert (not (= x33 x55)))
(assert (not (= x34 (_ bv7 8))))
(assert (not (= x34 x43)))
(assert (not (= x34 x44)))
(assert (not (= x34 (_ bv9 8))))
(assert (not (= x34 x53)))
(assert (not (= x34 (_ bv1 8))))
(assert (not (= x34 x55)))
(assert (not (= (_ bv7 8) x43)))
(assert (not (= (_ bv7 8) x44)))
(assert (not (= (_ bv7 8) (_ bv9 8))))
(assert (not (= (_ bv7 8) x53)))
(assert (not (= (_ bv7 8) (_ bv1 8))))
(assert (not (= (_ bv7 8) x55)))
(assert (not (= x43 x44)))
(assert (not (= x43 (_ bv9 8))))
(assert (not (= x43 x53)))
(assert (not (= x43 (_ bv1 8))))
(assert (not (= x43 x55)))
(assert (not (= x44 (_ bv9 8))))
(assert (not (= x44 x53)))
(assert (not (= x44 (_ bv1 8))))
(assert (not (= x44 x55)))
(assert (not (= (_ bv9 8) x53)))
(assert (not (= (_ bv9 8) (_ bv1 8))))
(assert (not (= (_ bv9 8) x55)))
(assert (not (= x53 (_ bv1 8))))
(assert (not (= x53 x55)))
(assert (not (= (_ bv1 8) x55)))
(assert (not (= x36 x37)))
(assert (not (= x36 x38)))
(assert (not (= x36 x46)))
(assert (not (= x36 x47)))
(assert (not (= x36 (_ bv5 8))))
(assert (not (= x36 x56)))
(assert (not (= x36 (_ bv2 8))))
(assert (not (= x36 x58)))
(assert (not (= x37 x38)))
(assert (not (= x37 x46)))
(assert (not (= x37 x47)))
(assert (not (= x37 (_ bv5 8))))
(assert (not (= x37 x56)))
(assert (not (= x37 (_ bv2 8))))
(assert (not (= x37 x58)))
(assert (not (= x38 x46)))
(assert (not (= x38 x47)))
(assert (not (= x38 (_ bv5 8))))
(assert (not (= x38 x56)))
(assert (not (= x38 (_ bv2 8))))
(assert (not (= x38 x58)))
(assert (not (= x46 x47)))
(assert (not (= x46 (_ bv5 8))))
(assert (not (= x46 x56)))
(assert (not (= x46 (_ bv2 8))))
(assert (not (= x46 x58)))
(assert (not (= x47 (_ bv5 8))))
(assert (not (= x47 x56)))
(assert (not (= x47 (_ bv2 8))))
(assert (not (= x47 x58)))
(assert (not (= (_ bv5 8) x56)))
(assert (not (= (_ bv5 8) (_ bv2 8))))
(assert (not (= (_ bv5 8) x58)))
(assert (not (= x56 (_ bv2 8))))
(assert (not (= x56 x58)))
(assert (not (= (_ bv2 8) x58)))
(assert (not (= x60 (_ bv7 8))))
(assert (not (= x60 x62)))
(assert (not (= x60 (_ bv8 8))))
(assert (not (= x60 x71)))
(assert (not (= x60 x72)))
(assert (not (= x60 x80)))
(assert (not (= x60 x81)))
(assert (not (= x60 (_ bv2 8))))
(assert (not (= (_ bv7 8) x62)))
(assert (not (= (_ bv7 8) (_ bv8 8))))
(assert (not (= (_ bv7 8) x71)))
(assert (not (= (_ bv7 8) x72)))
(assert (not (= (_ bv7 8) x80)))
(assert (not (= (_ bv7 8) x81)))
(assert (not (= (_ bv7 8) (_ bv2 8))))
(assert (not (= x62 (_ bv8 8))))
(assert (not (= x62 x71)))
(assert (not (= x62 x72)))
(assert (not (= x62 x80)))
(assert (not (= x62 x81)))
(assert (not (= x62 (_ bv2 8))))
(assert (not (= (_ bv8 8) x71)))
(assert (not (= (_ bv8 8) x72)))
(assert (not (= (_ bv8 8) x80)))
(assert (not (= (_ bv8 8) x81)))
(assert (not (= (_ bv8 8) (_ bv2 8))))
(assert (not (= x71 x72)))
(assert (not (= x71 x80)))
(assert (not (= x71 x81)))
(assert (not (= x71 (_ bv2 8))))
(assert (not (= x72 x80)))
(assert (not (= x72 x81)))
(assert (not (= x72 (_ bv2 8))))
(assert (not (= x80 x81)))
(assert (not (= x80 (_ bv2 8))))
(assert (not (= x81 (_ bv2 8))))
(assert (not (= x63 x64)))
(assert (not (= x63 x65)))
(assert (not (= x63 x73)))
(assert (not (= x63 x74)))
(assert (not (= x63 x75)))
(assert (not (= x63 x83)))
(assert (not (= x63 x84)))
(assert (not (= x63 x85)))
(assert (not (= x64 x65)))
(assert (not (= x64 x73)))
(assert (not (= x64 x74)))
(assert (not (= x64 x75)))
(assert (not (= x64 x83)))
(assert (not (= x64 x84)))
(assert (not (= x64 x85)))
(assert (not (= x65 x73)))
(assert (not (= x65 x74)))
(assert (not (= x65 x75)))
(assert (not (= x65 x83)))
(assert (not (= x65 x84)))
(assert (not (= x65 x85)))
(assert (not (= x73 x74)))
(assert (not (= x73 x75)))
(assert (not (= x73 x83)))
(assert (not (= x73 x84)))
(assert (not (= x73 x85)))
(assert (not (= x74 x75)))
(assert (not (= x74 x83)))
(assert (not (= x74 x84)))
(assert (not (= x74 x85)))
(assert (not (= x75 x83)))
(assert (not (= x75 x84)))
(assert (not (= x75 x85)))
(assert (not (= x83 x84)))
(assert (not (= x83 x85)))
(assert (not (= x84 x85)))
(assert (not (= (_ bv2 8) (_ bv9 8))))
(assert (not (= (_ bv2 8) x68)))
(assert (not (= (_ bv2 8) x76)))
(assert (not (= (_ bv2 8) x77)))
(assert (not (= (_ bv2 8) x78)))
(assert (not (= (_ bv2 8) (_ bv6 8))))
(assert (not (= (_ bv2 8) x87)))
(assert (not (= (_ bv2 8) (_ bv4 8))))
(assert (not (= (_ bv9 8) x68)))
(assert (not (= (_ bv9 8) x76)))
(assert (not (= (_ bv9 8) x77)))
(assert (not (= (_ bv9 8) x78)))
(assert (not (= (_ bv9 8) (_ bv6 8))))
(assert (not (= (_ bv9 8) x87)))
(assert (not (= (_ bv9 8) (_ bv4 8))))
(assert (not (= x68 x76)))
(assert (not (= x68 x77)))
(assert (not (= x68 x78)))
(assert (not (= x68 (_ bv6 8))))
(assert (not (= x68 x87)))
(assert (not (= x68 (_ bv4 8))))
(assert (not (= x76 x77)))
(assert (not (= x76 x78)))
(assert (not (= x76 (_ bv6 8))))
(assert (not (= x76 x87)))
(assert (not (= x76 (_ bv4 8))))
(assert (not (= x77 x78)))
(assert (not (= x77 (_ bv6 8))))
(assert (not (= x77 x87)))
(assert (not (= x77 (_ bv4 8))))
(assert (not (= x78 (_ bv6 8))))
(assert (not (= x78 x87)))
(assert (not (= x78 (_ bv4 8))))
(assert (not (= (_ bv6 8) x87)))
(assert (not (= (_ bv6 8) (_ bv4 8))))
(assert (not (= x87 (_ bv4 8))))
(check-sat)
(exit)
